peakDumbCharging = 7400; 
Machine = anon_enum(16); 
machineSpeed = [3700,3700,3700,3700,3700,3700,3700,3700,3700,3700,3700,3700,3700,3700,3700,3700]; 
machineLoad = [3700,3700,3700,3700,3700,3700,3700,3700,3700,3700,3700,3700,3700,3700,3700,3700]; 
Car = anon_enum(5); 
demandCar = [2960,13560,18000,3320,34120]; 
arrivalCar = [66,61,56,49,42]; 
departureCar = [69,68,63,51,57]; 
